c 1 _r
c 2 _r_1
c 3 _r_1_2
c 4 _r_1_3
c 5 _r_1_6
c 6 _r_1_6_7_8
c 7 _r_1_6_7_9
c 8 _r_1_6_10
c 9 _r_1_6_10_11_12
c 10 _r_1_6_10_11_13
c 11 _r_1_6_15
c 12 _r_1_6_15_16_17
c 13 _r_1_6_15_16_18
c 14 _r_1_19
c 15 _r_1_19_20_21
c 16 _r_1_19_20_22
c 17 _r_1_19_24
c 18 _r_1_19_26_27
c 19 _r_1_19_26_28
c 20 _r_1_30_31
c 21 _r_1_30_32
c 22 _r_1_30_33
c 23 _r_1_39
c 24 _r_1_39_40_41
c 25 _r_1_39_40_42
c 26 _r_43
c 27 _r_44
c 28 _r_45
c 29 _r_46
c 30 _r_47
c 31 _r_48
c 32 _r_49
p cnf 32 54
1 0
-2 1 0
-1 2 0
-26 1 0
-27 1 0
-1 27 0
-28 1 0
-29 1 0
-30 1 0
-31 1 0
-1 31 0
-32 1 0
-3 2 0
-4 2 0
-5 2 0
-2 5 0
-14 2 0
-2 14 0
-20 2 0
-21 2 0
-22 2 0
-2 20 21 22 0
-20 -21 0
-20 -22 0
-21 -22 0
-23 2 0
-2 23 0
-6 5 0
-7 5 0
-5 6 7 0
-6 -7 0
-8 5 0
-11 5 0
-5 11 0
-15 14 0
-16 14 0
-14 15 16 0
-15 -16 0
-17 14 0
-14 17 0
-18 14 0
-19 14 0
-14 18 19 0
-24 23 0
-25 23 0
-23 24 25 0
-24 -25 0
-9 8 0
-10 8 0
-8 9 10 0
-12 11 0
-13 11 0
-11 12 13 0
-12 -13 0
